(set-info :smt-lib-version 2.6)
(set-logic LRA)
(set-info :source |
   Monniaux, David; Quantifier Elimination by Lazy Model Enumeration, CAV 2010
|)
(set-info :category "random")
; ./Mjollnir_examples/B5/formula_115.m
(set-info :status sat)
(assert
 (forall ((|v17:0| Real) )(forall ((|v16:1| Real) )(forall ((|v15:2| Real) )(forall ((|v14:3| Real) )(forall ((|v13:4| Real) )(forall ((|v12:5| Real) )(exists ((|v11:6| Real) )(exists ((|v10:7| Real) )(exists ((|v9:8| Real) )(exists ((|v8:9| Real) )(exists ((|v7:10| Real) )(exists ((|v6:11| Real) )(forall ((|v5:12| Real) )(forall ((|v4:13| Real) )(forall ((|v3:14| Real) )(forall ((|v2:15| Real) )(forall ((|v1:16| Real) )(forall ((|v0:17| Real) )(let ((?x123 9))
(let ((?x124 (* ?x123 |v11:6|)))
(let ((?x345 (+ (+ (+ (* 5 |v11:6|) (* 4 |v9:8|)) ?x124) (* (- 1) |v15:2|))))
(let ((?x41 4))
(let ((?x332 (+ (+ (* 13 |v9:8|) (* (- 3) |v5:12|)) (* ?x123 |v17:0|))))
(let ((?x46 (- 18)))
(let ((?x325 (+ (+ (* 11 |v5:12|) (* 3 |v10:7|)) (* 20 |v14:3|))))
(let (($x336 (or (<= (+ ?x325 (* 17 |v2:15|)) ?x46) (<= (+ ?x332 (* (- 10) |v4:13|)) ?x41))))
(let ((?x97 19))
(let ((?x316 (+ (+ (* (- 3) |v5:12|) (* (- 9) |v17:0|)) (* (- 2) |v6:11|))))
(let ((?x74 (- 7)))
(let ((?x308 (+ (+ (* (- 2) |v2:15|) (* (- 19) |v14:3|)) (* (- 2) |v10:7|))))
(let (($x320 (or (<= (+ ?x308 (* 10 |v1:16|)) ?x74) (<= (+ ?x316 (* (- 10) |v10:7|)) ?x97))))
(let ((?x300 (+ (+ (* (- 4) |v8:9|) (* 20 |v1:16|)) (* (- 14) |v14:3|))))
(let ((?x64 12))
(let ((?x290 (+ (+ (* 0 |v10:7|) (* (- 19) |v12:5|)) (* (- 20) |v10:7|))))
(let ((?x36 (- 16)))
(let ((?x37 (* ?x36 |v6:11|)))
(let ((?x282 (+ (+ (* (- 14) |v8:9|) (* (- 6) |v17:0|)) (* 7 |v17:0|))))
(let (($x294 (or (<= (+ ?x282 ?x37) (- 20)) (<= (+ ?x290 (* (- 6) |v2:15|)) ?x64))))
(let ((?x273 (+ (+ (* (- 3) |v16:1|) (* 16 |v14:3|)) (* (- 2) |v16:1|))))
(let ((?x10 (- 6)))
(let ((?x210 (* ?x10 |v9:8|)))
(let ((?x266 (+ (+ (+ (* ?x41 |v9:8|) (* 10 |v12:5|)) ?x210) (* ?x64 |v6:11|))))
(let (($x277 (or (<= ?x266 ?x97) (<= (+ ?x273 (* (- 2) |v11:6|)) (- 13)))))
(let ((?x120 (* (- 17) |v13:4|)))
(let ((?x256 (+ (+ (+ |v10:7| (* (- 12) |v14:3|)) (* 17 |v16:1|)) ?x120)))
(let ((?x178 13))
(let ((?x88 17))
(let ((?x89 (* ?x88 |v14:3|)))
(let ((?x249 (+ (+ (* (- 14) |v17:0|) (* (- 12) |v12:5|)) (* (- 1) |v10:7|))))
(let ((?x129 18))
(let ((?x206 (* 2 |v7:10|)))
(let ((?x239 (+ (+ (* 8 |v11:6|) (* ?x129 |v2:15|)) (* 6 |v8:9|))))
(let ((?x229 (+ (+ (* (- 11) |v2:15|) (* 5 |v2:15|)) (* ?x178 |v2:15|))))
(let (($x242 (and (<= (+ ?x229 (* 2 |v1:16|)) ?x74) (<= (+ ?x239 ?x206) ?x129))))
(let (($x296 (and (or $x242 (and (<= (+ ?x249 ?x89) ?x178) (<= ?x256 15))) (or $x277 $x294))))
(let ((?x219 (- 10)))
(let ((?x217 (* ?x10 |v17:0|)))
(let (($x220 (<= (+ (+ (+ ?x210 (* ?x41 |v0:17|)) (* 8 |v12:5|)) ?x217) ?x219)))
(let ((?x203 (+ (+ (* 10 |v10:7|) (* (- 4) |v0:17|)) (* (- 11) |v17:0|))))
(let ((?x24 0))
(let ((?x194 (+ (+ (+ (* 10 |v8:9|) |v3:14|) (* 11 |v14:3|)) (* (- 5) |v8:9|))))
(let ((?x52 (- 9)))
(let ((?x185 (+ (+ (+ (* ?x129 |v5:12|) (* ?x178 |v5:12|)) (* ?x36 |v4:13|)) (* ?x97 |v2:15|))))
(let (($x222 (or (or (<= ?x185 ?x52) (<= ?x194 ?x24)) (or (<= (+ ?x203 ?x206) ?x10) $x220))))
(let ((?x171 (+ (+ (+ (* 11 |v16:1|) |v12:5|) (* 14 |v14:3|)) (* (- 14) |v9:8|))))
(let ((?x160 (+ (+ (* (- 3) |v16:1|) (* 5 |v3:14|)) (* ?x10 |v8:9|))))
(let ((?x154 (+ (+ (+ (* ?x46 |v0:17|) ?x89) (* 20 |v17:0|)) (* 11 |v11:6|))))
(let (($x174 (and (<= ?x154 ?x74) (or (<= (+ ?x160 (* (- 12) |v15:2|)) ?x36) (<= ?x171 ?x74)))))
(let ((?x139 (+ (+ (* ?x129 |v15:2|) (* (- 3) |v9:8|)) (* 3 |v8:9|))))
(let ((?x125 (+ (+ (+ (* 11 |v0:17|) (* (- 15) |v8:9|)) ?x120) ?x124)))
(let (($x146 (and (<= ?x125 ?x36) (<= (+ ?x139 (* (- 13) |v3:14|)) (- 8)))))
(let ((?x109 (- 19)))
(let ((?x105 (+ (+ (* ?x88 |v16:1|) (* 7 |v3:14|)) (* 5 |v0:17|))))
(let ((?x96 (+ (+ (+ ?x89 (* (- 12) |v10:7|)) (* ?x88 |v3:14|)) (* (- 11) |v7:10|))))
(let ((?x81 (- 14)))
(let ((?x80 (+ (+ (+ (* 7 |v8:9|) (* ?x52 |v1:16|)) (* ?x74 |v16:1|)) (* 16 |v4:13|))))
(let ((?x63 (+ (+ (+ (* ?x52 |v10:7|) (* 5 |v4:13|)) (* ?x10 |v15:2|)) (* (- 11) |v11:6|))))
(let ((?x45 (+ (+ (+ (* 11 |v8:9|) ?x37) (* ?x41 |v17:0|)) (* ?x36 |v8:9|))))
(let ((?x27 10))
(let ((?x19 20))
(let ((?x20 (* ?x19 |v1:16|)))
(let ((?x26 (+ (+ (+ (* ?x10 |v15:2|) (* (- 12) |v7:10|)) ?x20) (* ?x24 |v4:13|))))
(let (($x84 (and (and (<= ?x26 ?x27) (<= ?x45 ?x46)) (or (<= ?x63 ?x64) (<= ?x80 ?x81)))))
(let (($x148 (and $x84 (or (and (<= ?x96 ?x97) (<= (+ ?x105 (* ?x41 |v12:5|)) ?x109)) $x146))))
(let (($x340 (or (or $x148 (or $x174 $x222)) (and $x296 (and (<= (+ ?x300 (* ?x178 |v7:10|)) ?x46) (and $x320 $x336))))))
(and $x340 (<= ?x345 ?x123))))))))))))))))))))))))))))))))))))))))))))))))))))))))))))))))))))))
)
)
)
)
)
)
)
)
)
)
)
)
)
)
)
)
)
)
(check-sat)
(exit)

